************************************************************************
file with basedata            : a103_.bas
initial value random generator: 1987
************************************************************************
projects                      :  1
jobs (incl. supersource/sink ):  12
horizon bound                 :  80
RESOURCES
  - renewable                 :  4   R
  - nonrenewable              :  0   N
  - doubly constrained        :  0   D
  - partially renewable       :  0   P
************************************************************************
PROJECT INFORMATION:
prono.  #jobs rel.date duedate tardcost  CPM-Time
    1     10      0       11        3       11
************************************************************************
PRECEDENCE RELATIONS:
jobno.    #modes  #successors   successors
   1        1          3           2   3   4
   2        3          2           5   6
   3        3          2           7   9
   4        3          1           8
   5        3          2           9  10
   6        3          2           9  10
   7        3          1          11
   8        3          2          10  11
   9        3          1          12
  10        3          1          12
  11        3          1          12
  12        1          0        
************************************************************************
REQUESTS/DURATIONS:
jobno. mode duration  R 1  R 2  R 3  R 4
  1      1     0       0    0    0    0
  2      1     1       8    0    5    6
         2     3       6    0    3    0
         3     8       0    7    3    2
  3      1     2      10    7    8    0
         2     3       9    6    8    5
         3     7       0    6    8    5
  4      1     3       0    0    4    0
         2     6       8    9    0    8
         3     9       6    3    3    5
  5      1     3       9    0    8    7
         2     6       9   10    0    7
         3     7       8    5    7    6
  6      1     1       6    6    7    3
         2     4       6    4    7    0
         3     8       5    0    6    0
  7      1     3       8    0    0   10
         2     6       3    0    2   10
         3     9       0    7    1    9
  8      1     4       0    4    9    6
         2     5       5    3    8    0
         3     6       3    2    8    5
  9      1     1       4    9    9   10
         2     2       0    9    7    5
         3    10       0    8    7    5
 10      1     4       0    4    6    5
         2     9       0    0    4    4
         3    10       0    1    2    3
 11      1     1       7    0    0    4
         2     5       6    9    8    3
         3     6       3    8    5    2
 12      1     0       0    0    0    0
************************************************************************
RESOURCE AVAILABILITIES:
  R 1  R 2  R 3  R 4
   13   12   12   13
************************************************************************
